
===== New CPLEX run =====
Instance: /home/yorig/tuner/mpils-tests/instances/miplib/medium-1/neos-3024952-loue.mps
Config: /scratch/yorig/mpils-results-grid-seconds-10-no-mip-start/medium-1/4proc/seed-1/9_neos-3024952-loue_seed-1_20260503_044429/expansion/config_param_CPXPARAM_MIP_Limits_ProbeTime_60_iter_1.prm
========================

Selected objective sense:  MINIMIZE
Selected objective  name:  R3706
Selected RHS        name:  B
Selected bound      name:  BOUND
Version identifier: 22.1.2.0 | 2024-11-26 | 0edbb82fd
CPXPARAM_Threads                                 8
CPXPARAM_Parallel                                1
CPXPARAM_MIP_Cuts_Cliques                        -1
CPXPARAM_MIP_Limits_GomoryCand                   50
CPXPARAM_MIP_Cuts_PathCut                        1
CPXPARAM_MIP_Cuts_MIRCut                         2
CPXPARAM_MIP_Cuts_Disjunctive                    1
CPXPARAM_Emphasis_MIP                            4
CPXPARAM_TimeLimit                               10
CPXPARAM_MIP_Limits_ProbeTime                    60
Tried aggregator 2 times.
MIP Presolve eliminated 40 rows and 0 columns.
MIP Presolve modified 80 coefficients.
Aggregator did 32 substitutions.
Reduced MIP has 3633 rows, 3223 columns, and 15906 nonzeros.
Reduced MIP has 0 binaries, 3223 generals, 0 SOSs, and 0 indicators.
Presolve time = 0.01 sec. (7.72 ticks)
Tried aggregator 1 time.
Detecting symmetries...
Reduced MIP has 3633 rows, 3223 columns, and 15906 nonzeros.
Reduced MIP has 0 binaries, 3223 generals, 0 SOSs, and 0 indicators.
Presolve time = 0.01 sec. (8.53 ticks)
MIP emphasis: hidden feasible solutions.
MIP search method: dynamic search.
Parallel mode: deterministic, using up to 8 threads.
Root relaxation solution time = 0.14 sec. (166.79 ticks)

        Nodes                                         Cuts/
   Node  Left     Objective  IInf  Best Integer    Best Bound    ItCnt     Gap

      0     0    22882.0000   397                  22882.0000     3901         
      0     0    23571.3985   709                   Cuts: 428     4319         
      0     0    23679.1810   802                   Cuts: 227     4447         
      0     0    23736.3198   849                   Cuts: 145     4524         
      0     0    23759.1957   962                   Cuts: 119     4600         
      0     0    23846.8380  1142                   Cuts: 122     4682         
Detecting symmetries...
      0     0    24090.2888   988                   Cuts: 103     4842         
      0     0    24178.3286  1066                   Cuts: 122     4939         
      0     0    24299.3000  1076                   Cuts: 118     5071         
      0     0    24369.9619  1069                    Cuts: 82     5196         
      0     0    24403.5203  1206                    Cuts: 81     5293         
      0     0    24437.9234  1300                    Cuts: 80     5394         
      0     0    24447.5229  1282                    Cuts: 85     5450         
      0     0    24465.3486  1308                    Cuts: 53     5486         
      0     0    24473.2372  1216                    Cuts: 55     5565         
      0     0    24476.2689  1283                    Cuts: 70     5613         
      0     0    24509.7365  1170                    Cuts: 61     5704         
      0     0    24516.1362  1309                    Cuts: 42     5743         
      0     0    24520.1632  1348                    Cuts: 45     5788         
Detecting symmetries...
      0     2    24520.1632  1348                  24520.1632     5788         
Elapsed time = 1.74 sec. (2468.75 ticks, tree = 0.02 MB, solutions = 0)
    382   336    24563.2167   996                  24520.1632     9484         
    840   693    24588.9581   835                  24520.1632    12650         
   1443  1219    24626.1159   731                  24520.1632    18138         
   2044  1852    24808.7714   625                  24520.1632    24697         
   2753  2536    25283.9727   522                  24520.1632    34303         
   3422  3229    25443.7801   760                  24520.1632    44932         
   4157  3919    25744.2923   667                  24520.1632    55501         
   4860  4721    27486.3359   446                  24520.1632    68943         
   5577  5388    26594.9670   467                  24520.1632    79601         
   9018  8722    29249.2667   106                  24520.1632   122452         
Elapsed time = 3.76 sec. (5570.46 ticks, tree = 32.90 MB, solutions = 0)
*  9190+ 8845                        29533.0000    24520.1632            16.97%
*  9264+ 8845                        29459.0000    24520.1632            16.77%
*  9880+ 8838                        29345.0000    24520.1632            16.44%
*  9894+ 8879                        29167.0000    24520.1632            15.93%
   9895  8723    29445.8667    59    29167.0000    24520.1632   126747   15.93%
*  9896+ 8674                        29127.0000    24520.1632            15.82%
* 10022+ 8725                        28776.0000    24520.1632            14.79%
* 10250+ 8334                        28734.0000    24520.1632            14.66%
  10517  8519    25203.2536   700    28734.0000    24520.1632   137808   14.66%
* 10566+ 8576                        28514.0000    24520.1632            14.01%
* 10570+ 8576                        28462.0000    24520.1632            13.85%
* 10646+ 8637                        28446.0000    24520.1632            13.80%
  10650  8323    25479.3536   666    28446.0000    24520.1632   140790   13.80%

Performing restart 1

Repeating presolve.
Tried aggregator 1 time.
MIP Presolve modified 16 coefficients.
Reduced MIP has 3633 rows, 3223 columns, and 15892 nonzeros.
Reduced MIP has 0 binaries, 3223 generals, 0 SOSs, and 0 indicators.
Presolve time = 0.00 sec. (6.35 ticks)
Tried aggregator 1 time.
Reduced MIP has 3633 rows, 3223 columns, and 15892 nonzeros.
Reduced MIP has 0 binaries, 3223 generals, 0 SOSs, and 0 indicators.
Presolve time = 0.01 sec. (8.81 ticks)
Represolve time = 0.02 sec. (30.60 ticks)
* 10651+    0                        28416.0000    24546.1249            13.62%
  10651     0    25285.1861  1151    28416.0000     Cuts: 319   149505   11.02%
* 10651+    0                        28414.0000    25285.1861            11.01%
  10651     0    25365.1043  1299    28414.0000     Cuts: 222   149695   10.73%
* 10651+    0                        28414.0000    25365.1043            10.73%
  10651     0    25647.9133  1136    28414.0000     Cuts: 193   149872    9.73%
  10651     0    25733.4723  1000    28414.0000     Cuts: 143   149973    9.43%
  10651     0    25787.8531  1206    28414.0000     Cuts: 105   150069    9.24%
  10651     0    26038.2197  1001    28414.0000     Cuts: 106   150179    8.36%
  10651     0    26116.5647  1039    28414.0000     Cuts: 112   150247    8.09%
  10651     0    26133.5535  1185    28414.0000      Cuts: 56   150309    8.03%
  10651     0    26176.7351  1072    28414.0000      Cuts: 57   150367    7.87%
  10651     0    26191.4436  1011    28414.0000      Cuts: 41   150394    7.82%
  10651     0    26208.7656  1032    28414.0000      Cuts: 22   150435    7.76%
  10651     0    26220.6372  1117    28414.0000      Cuts: 20   150454    7.72%
  10651     0    26222.3680  1198    28414.0000       Cuts: 6   150461    7.69%
  10651     0    26246.6061  1086    28414.0000      Cuts: 16   150501    7.63%
  10651     0    26249.5333  1112    28414.0000      Cuts: 46   150527    7.62%
  10651     0    26256.2202  1090    28414.0000      Cuts: 21   150553    7.59%
  10651     0    26258.6295  1111    28414.0000      Cuts: 19   150579    7.57%
  10651     0    26259.2262  1199    28414.0000    MIRcuts: 6   150587    7.57%
  10651     0    26260.3768  1061    28414.0000       Cuts: 4   150592    7.56%
  10651     0    26260.6645   977    28414.0000       Cuts: 9   150598    7.56%
  10651     0    26260.6645   972    28414.0000       Cuts: 6   150611    7.53%
  10651     0    26262.6645   984    28414.0000      Cuts: 13   150613    7.53%
  10651     0    26262.6645   962    28414.0000   ZeroHalf: 2   150619    7.53%
  10651     2    26262.6645   962    28414.0000    26274.3143   150619    7.53%
* 11436+  628                        28404.0000    26274.3143             7.50%
* 11501+  687                        28404.0000    26274.3143             7.50%
* 11546+  758                        28394.0000    26274.3143             7.47%
  11571   833    26427.0714   338    28394.0000    26274.3143   154751    7.47%
* 12046+ 1138                        28371.0000    26274.3143             7.39%
* 12444+ 1510                        28333.0000    26274.3143             7.27%
* 12451+ 1510                        28263.0000    26274.3143             7.04%
* 12456+ 1571                        28262.0000    26274.3143             7.03%
  12457     9    26293.3109   900    28262.0000    26274.3143   150657    7.03%

Mixed integer rounding cuts applied:  255
Flow path cuts applied:  0
Zero-half cuts applied:  55
Gomory fractional cuts applied:  43
Disjunctive cuts applied:  0
Cone linearizations applied:  0

Root node processing (before b&c):
  Real time             =    1.73 sec. (2466.60 ticks)
Parallel b&c, 8 threads:
  Real time             =    8.27 sec. (11984.48 ticks)
  Sync time (average)   =    0.59 sec.
  Wait time (average)   =    0.00 sec.
                          ------------
Total (root+branch&cut) =   10.00 sec. (14451.08 ticks)
Gap: 7.03%
Upper bound: 28262
Lower bound: 26274.3
End of CPLEX run. Time: 10.0057 seconds

===== New CPLEX run =====
Instance: /home/yorig/tuner/mpils-tests/instances/miplib/medium-1/neos-3024952-loue.mps
Config: /scratch/yorig/mpils-results-grid-seconds-10-no-mip-start/medium-1/4proc/seed-1/9_neos-3024952-loue_seed-1_20260503_044429/expansion/config_param_CPXPARAM_MIP_Limits_ProbeTime_120_iter_1.prm
========================

Selected objective sense:  MINIMIZE
Selected objective  name:  R3706
Selected RHS        name:  B
Selected bound      name:  BOUND
Version identifier: 22.1.2.0 | 2024-11-26 | 0edbb82fd
CPXPARAM_Threads                                 8
CPXPARAM_Parallel                                1
CPXPARAM_MIP_Cuts_Cliques                        -1
CPXPARAM_MIP_Limits_GomoryCand                   50
CPXPARAM_MIP_Cuts_PathCut                        1
CPXPARAM_MIP_Cuts_MIRCut                         2
CPXPARAM_MIP_Cuts_Disjunctive                    1
CPXPARAM_Emphasis_MIP                            4
CPXPARAM_TimeLimit                               10
CPXPARAM_MIP_Limits_ProbeTime                    120
Tried aggregator 2 times.
MIP Presolve eliminated 40 rows and 0 columns.
MIP Presolve modified 80 coefficients.
Aggregator did 32 substitutions.
Reduced MIP has 3633 rows, 3223 columns, and 15906 nonzeros.
Reduced MIP has 0 binaries, 3223 generals, 0 SOSs, and 0 indicators.
Presolve time = 0.01 sec. (7.72 ticks)
Tried aggregator 1 time.
Detecting symmetries...
Reduced MIP has 3633 rows, 3223 columns, and 15906 nonzeros.
Reduced MIP has 0 binaries, 3223 generals, 0 SOSs, and 0 indicators.
Presolve time = 0.01 sec. (8.53 ticks)
MIP emphasis: hidden feasible solutions.
MIP search method: dynamic search.
Parallel mode: deterministic, using up to 8 threads.
Root relaxation solution time = 0.14 sec. (166.79 ticks)

        Nodes                                         Cuts/
   Node  Left     Objective  IInf  Best Integer    Best Bound    ItCnt     Gap

      0     0    22882.0000   397                  22882.0000     3901         
      0     0    23571.3985   709                   Cuts: 428     4319         
      0     0    23679.1810   802                   Cuts: 227     4447         
      0     0    23736.3198   849                   Cuts: 145     4524         
      0     0    23759.1957   962                   Cuts: 119     4600         
      0     0    23846.8380  1142                   Cuts: 122     4682         
Detecting symmetries...
      0     0    24090.2888   988                   Cuts: 103     4842         
      0     0    24178.3286  1066                   Cuts: 122     4939         
      0     0    24299.3000  1076                   Cuts: 118     5071         
      0     0    24369.9619  1069                    Cuts: 82     5196         
      0     0    24403.5203  1206                    Cuts: 81     5293         
      0     0    24437.9234  1300                    Cuts: 80     5394         
      0     0    24447.5229  1282                    Cuts: 85     5450         
      0     0    24465.3486  1308                    Cuts: 53     5486         
      0     0    24473.2372  1216                    Cuts: 55     5565         
      0     0    24476.2689  1283                    Cuts: 70     5613         
      0     0    24509.7365  1170                    Cuts: 61     5704         
      0     0    24516.1362  1309                    Cuts: 42     5743         
      0     0    24520.1632  1348                    Cuts: 45     5788         
Detecting symmetries...
      0     2    24520.1632  1348                  24520.1632     5788         
Elapsed time = 1.74 sec. (2468.75 ticks, tree = 0.02 MB, solutions = 0)
    382   336    24563.2167   996                  24520.1632     9484         
    840   693    24588.9581   835                  24520.1632    12650         
   1443  1219    24626.1159   731                  24520.1632    18138         
   2044  1852    24808.7714   625                  24520.1632    24697         
   2753  2536    25283.9727   522                  24520.1632    34303         
   3422  3229    25443.7801   760                  24520.1632    44932         
   4157  3919    25744.2923   667                  24520.1632    55501         
   4860  4721    27486.3359   446                  24520.1632    68943         
   5577  5388    26594.9670   467                  24520.1632    79601         
   9018  8722    29249.2667   106                  24520.1632   122452         
Elapsed time = 3.76 sec. (5570.46 ticks, tree = 32.90 MB, solutions = 0)
*  9190+ 8845                        29533.0000    24520.1632            16.97%
*  9264+ 8845                        29459.0000    24520.1632            16.77%
*  9880+ 8838                        29345.0000    24520.1632            16.44%
*  9894+ 8879                        29167.0000    24520.1632            15.93%
   9895  8723    29445.8667    59    29167.0000    24520.1632   126747   15.93%
*  9896+ 8674                        29127.0000    24520.1632            15.82%
* 10022+ 8725                        28776.0000    24520.1632            14.79%
* 10250+ 8334                        28734.0000    24520.1632            14.66%
  10517  8519    25203.2536   700    28734.0000    24520.1632   137808   14.66%
* 10566+ 8576                        28514.0000    24520.1632            14.01%
* 10570+ 8576                        28462.0000    24520.1632            13.85%
* 10646+ 8637                        28446.0000    24520.1632            13.80%
  10650  8323    25479.3536   666    28446.0000    24520.1632   140790   13.80%

Performing restart 1

Repeating presolve.
Tried aggregator 1 time.
MIP Presolve modified 16 coefficients.
Reduced MIP has 3633 rows, 3223 columns, and 15892 nonzeros.
Reduced MIP has 0 binaries, 3223 generals, 0 SOSs, and 0 indicators.
Presolve time = 0.00 sec. (6.35 ticks)
Tried aggregator 1 time.
Reduced MIP has 3633 rows, 3223 columns, and 15892 nonzeros.
Reduced MIP has 0 binaries, 3223 generals, 0 SOSs, and 0 indicators.
Presolve time = 0.01 sec. (8.81 ticks)
Represolve time = 0.02 sec. (30.60 ticks)
* 10651+    0                        28416.0000    24546.1249            13.62%
  10651     0    25285.1861  1151    28416.0000     Cuts: 319   149505   11.02%
* 10651+    0                        28414.0000    25285.1861            11.01%
  10651     0    25365.1043  1299    28414.0000     Cuts: 222   149695   10.73%
* 10651+    0                        28414.0000    25365.1043            10.73%
  10651     0    25647.9133  1136    28414.0000     Cuts: 193   149872    9.73%
  10651     0    25733.4723  1000    28414.0000     Cuts: 143   149973    9.43%
  10651     0    25787.8531  1206    28414.0000     Cuts: 105   150069    9.24%
  10651     0    26038.2197  1001    28414.0000     Cuts: 106   150179    8.36%
  10651     0    26116.5647  1039    28414.0000     Cuts: 112   150247    8.09%
  10651     0    26133.5535  1185    28414.0000      Cuts: 56   150309    8.03%
  10651     0    26176.7351  1072    28414.0000      Cuts: 57   150367    7.87%
  10651     0    26191.4436  1011    28414.0000      Cuts: 41   150394    7.82%
  10651     0    26208.7656  1032    28414.0000      Cuts: 22   150435    7.76%
  10651     0    26220.6372  1117    28414.0000      Cuts: 20   150454    7.72%
  10651     0    26222.3680  1198    28414.0000       Cuts: 6   150461    7.69%
  10651     0    26246.6061  1086    28414.0000      Cuts: 16   150501    7.63%
  10651     0    26249.5333  1112    28414.0000      Cuts: 46   150527    7.62%
  10651     0    26256.2202  1090    28414.0000      Cuts: 21   150553    7.59%
  10651     0    26258.6295  1111    28414.0000      Cuts: 19   150579    7.57%
  10651     0    26259.2262  1199    28414.0000    MIRcuts: 6   150587    7.57%
  10651     0    26260.3768  1061    28414.0000       Cuts: 4   150592    7.56%
  10651     0    26260.6645   977    28414.0000       Cuts: 9   150598    7.56%
  10651     0    26260.6645   972    28414.0000       Cuts: 6   150611    7.53%
  10651     0    26262.6645   984    28414.0000      Cuts: 13   150613    7.53%
  10651     0    26262.6645   962    28414.0000   ZeroHalf: 2   150619    7.53%
  10651     2    26262.6645   962    28414.0000    26274.3143   150619    7.53%
* 11436+  628                        28404.0000    26274.3143             7.50%
* 11501+  687                        28404.0000    26274.3143             7.50%
* 11546+  758                        28394.0000    26274.3143             7.47%
  11571   833    26427.0714   338    28394.0000    26274.3143   154751    7.47%
* 12046+ 1138                        28371.0000    26274.3143             7.39%
* 12444+ 1510                        28333.0000    26274.3143             7.27%
* 12451+ 1510                        28263.0000    26274.3143             7.04%
* 12458+ 1571                        28262.0000    26274.3143             7.03%
  12459     9    26293.3109   900    28262.0000    26274.3143   150657    7.03%

Mixed integer rounding cuts applied:  255
Flow path cuts applied:  0
Zero-half cuts applied:  55
Gomory fractional cuts applied:  43
Disjunctive cuts applied:  0
Cone linearizations applied:  0

Root node processing (before b&c):
  Real time             =    1.73 sec. (2466.60 ticks)
Parallel b&c, 8 threads:
  Real time             =    8.27 sec. (11984.48 ticks)
  Sync time (average)   =    0.59 sec.
  Wait time (average)   =    0.00 sec.
                          ------------
Total (root+branch&cut) =   10.00 sec. (14451.08 ticks)
Gap: 7.03%
Upper bound: 28262
Lower bound: 26274.3
End of CPLEX run. Time: 10.0063 seconds

===== New CPLEX run =====
Instance: /home/yorig/tuner/mpils-tests/instances/miplib/medium-1/neos-3024952-loue.mps
Config: /scratch/yorig/mpils-results-grid-seconds-10-no-mip-start/medium-1/4proc/seed-1/9_neos-3024952-loue_seed-1_20260503_044429/expansion/config_param_CPXPARAM_MIP_Limits_ProbeTime_240_iter_1.prm
========================

Selected objective sense:  MINIMIZE
Selected objective  name:  R3706
Selected RHS        name:  B
Selected bound      name:  BOUND
Version identifier: 22.1.2.0 | 2024-11-26 | 0edbb82fd
CPXPARAM_Threads                                 8
CPXPARAM_Parallel                                1
CPXPARAM_MIP_Cuts_Cliques                        -1
CPXPARAM_MIP_Limits_GomoryCand                   50
CPXPARAM_MIP_Cuts_PathCut                        1
CPXPARAM_MIP_Cuts_MIRCut                         2
CPXPARAM_MIP_Cuts_Disjunctive                    1
CPXPARAM_Emphasis_MIP                            4
CPXPARAM_TimeLimit                               10
CPXPARAM_MIP_Limits_ProbeTime                    240
Tried aggregator 2 times.
MIP Presolve eliminated 40 rows and 0 columns.
MIP Presolve modified 80 coefficients.
Aggregator did 32 substitutions.
Reduced MIP has 3633 rows, 3223 columns, and 15906 nonzeros.
Reduced MIP has 0 binaries, 3223 generals, 0 SOSs, and 0 indicators.
Presolve time = 0.01 sec. (7.72 ticks)
Tried aggregator 1 time.
Detecting symmetries...
Reduced MIP has 3633 rows, 3223 columns, and 15906 nonzeros.
Reduced MIP has 0 binaries, 3223 generals, 0 SOSs, and 0 indicators.
Presolve time = 0.01 sec. (8.53 ticks)
MIP emphasis: hidden feasible solutions.
MIP search method: dynamic search.
Parallel mode: deterministic, using up to 8 threads.
Root relaxation solution time = 0.14 sec. (166.79 ticks)

        Nodes                                         Cuts/
   Node  Left     Objective  IInf  Best Integer    Best Bound    ItCnt     Gap

      0     0    22882.0000   397                  22882.0000     3901         
      0     0    23571.3985   709                   Cuts: 428     4319         
      0     0    23679.1810   802                   Cuts: 227     4447         
      0     0    23736.3198   849                   Cuts: 145     4524         
      0     0    23759.1957   962                   Cuts: 119     4600         
      0     0    23846.8380  1142                   Cuts: 122     4682         
Detecting symmetries...
      0     0    24090.2888   988                   Cuts: 103     4842         
      0     0    24178.3286  1066                   Cuts: 122     4939         
      0     0    24299.3000  1076                   Cuts: 118     5071         
      0     0    24369.9619  1069                    Cuts: 82     5196         
      0     0    24403.5203  1206                    Cuts: 81     5293         
      0     0    24437.9234  1300                    Cuts: 80     5394         
      0     0    24447.5229  1282                    Cuts: 85     5450         
      0     0    24465.3486  1308                    Cuts: 53     5486         
      0     0    24473.2372  1216                    Cuts: 55     5565         
      0     0    24476.2689  1283                    Cuts: 70     5613         
      0     0    24509.7365  1170                    Cuts: 61     5704         
      0     0    24516.1362  1309                    Cuts: 42     5743         
      0     0    24520.1632  1348                    Cuts: 45     5788         
Detecting symmetries...
      0     2    24520.1632  1348                  24520.1632     5788         
Elapsed time = 1.74 sec. (2468.75 ticks, tree = 0.02 MB, solutions = 0)
    382   336    24563.2167   996                  24520.1632     9484         
    840   693    24588.9581   835                  24520.1632    12650         
   1443  1219    24626.1159   731                  24520.1632    18138         
   2044  1852    24808.7714   625                  24520.1632    24697         
   2753  2536    25283.9727   522                  24520.1632    34303         
   3422  3229    25443.7801   760                  24520.1632    44932         
   4157  3919    25744.2923   667                  24520.1632    55501         
   4860  4721    27486.3359   446                  24520.1632    68943         
   5577  5388    26594.9670   467                  24520.1632    79601         
   9018  8722    29249.2667   106                  24520.1632   122452         
Elapsed time = 3.76 sec. (5570.46 ticks, tree = 32.90 MB, solutions = 0)
*  9190+ 8845                        29533.0000    24520.1632            16.97%
*  9264+ 8845                        29459.0000    24520.1632            16.77%
*  9880+ 8838                        29345.0000    24520.1632            16.44%
*  9894+ 8879                        29167.0000    24520.1632            15.93%
   9895  8723    29445.8667    59    29167.0000    24520.1632   126747   15.93%
*  9896+ 8674                        29127.0000    24520.1632            15.82%
* 10022+ 8725                        28776.0000    24520.1632            14.79%
* 10250+ 8334                        28734.0000    24520.1632            14.66%
  10517  8519    25203.2536   700    28734.0000    24520.1632   137808   14.66%
* 10566+ 8576                        28514.0000    24520.1632            14.01%
* 10570+ 8576                        28462.0000    24520.1632            13.85%
* 10646+ 8637                        28446.0000    24520.1632            13.80%
  10650  8323    25479.3536   666    28446.0000    24520.1632   140790   13.80%

Performing restart 1

Repeating presolve.
Tried aggregator 1 time.
MIP Presolve modified 16 coefficients.
Reduced MIP has 3633 rows, 3223 columns, and 15892 nonzeros.
Reduced MIP has 0 binaries, 3223 generals, 0 SOSs, and 0 indicators.
Presolve time = 0.00 sec. (6.35 ticks)
Tried aggregator 1 time.
Reduced MIP has 3633 rows, 3223 columns, and 15892 nonzeros.
Reduced MIP has 0 binaries, 3223 generals, 0 SOSs, and 0 indicators.
Presolve time = 0.01 sec. (8.81 ticks)
Represolve time = 0.02 sec. (30.60 ticks)
* 10651+    0                        28416.0000    24546.1249            13.62%
  10651     0    25285.1861  1151    28416.0000     Cuts: 319   149505   11.02%
* 10651+    0                        28414.0000    25285.1861            11.01%
  10651     0    25365.1043  1299    28414.0000     Cuts: 222   149695   10.73%
* 10651+    0                        28414.0000    25365.1043            10.73%
  10651     0    25647.9133  1136    28414.0000     Cuts: 193   149872    9.73%
  10651     0    25733.4723  1000    28414.0000     Cuts: 143   149973    9.43%
  10651     0    25787.8531  1206    28414.0000     Cuts: 105   150069    9.24%
  10651     0    26038.2197  1001    28414.0000     Cuts: 106   150179    8.36%
  10651     0    26116.5647  1039    28414.0000     Cuts: 112   150247    8.09%
  10651     0    26133.5535  1185    28414.0000      Cuts: 56   150309    8.03%
  10651     0    26176.7351  1072    28414.0000      Cuts: 57   150367    7.87%
  10651     0    26191.4436  1011    28414.0000      Cuts: 41   150394    7.82%
  10651     0    26208.7656  1032    28414.0000      Cuts: 22   150435    7.76%
  10651     0    26220.6372  1117    28414.0000      Cuts: 20   150454    7.72%
  10651     0    26222.3680  1198    28414.0000       Cuts: 6   150461    7.69%
  10651     0    26246.6061  1086    28414.0000      Cuts: 16   150501    7.63%
  10651     0    26249.5333  1112    28414.0000      Cuts: 46   150527    7.62%
  10651     0    26256.2202  1090    28414.0000      Cuts: 21   150553    7.59%
  10651     0    26258.6295  1111    28414.0000      Cuts: 19   150579    7.57%
  10651     0    26259.2262  1199    28414.0000    MIRcuts: 6   150587    7.57%
  10651     0    26260.3768  1061    28414.0000       Cuts: 4   150592    7.56%
  10651     0    26260.6645   977    28414.0000       Cuts: 9   150598    7.56%
  10651     0    26260.6645   972    28414.0000       Cuts: 6   150611    7.53%
  10651     0    26262.6645   984    28414.0000      Cuts: 13   150613    7.53%
  10651     0    26262.6645   962    28414.0000   ZeroHalf: 2   150619    7.53%
  10651     2    26262.6645   962    28414.0000    26274.3143   150619    7.53%
* 11436+  628                        28404.0000    26274.3143             7.50%
* 11501+  687                        28404.0000    26274.3143             7.50%
* 11546+  758                        28394.0000    26274.3143             7.47%
  11571   833    26427.0714   338    28394.0000    26274.3143   154751    7.47%
* 12046+ 1138                        28371.0000    26274.3143             7.39%
* 12444+ 1510                        28333.0000    26274.3143             7.27%
* 12451+ 1510                        28263.0000    26274.3143             7.04%
* 12455+ 1571                        28262.0000    26274.3143             7.03%
  12456     9    26293.3109   900    28262.0000    26274.3143   150657    7.03%

Mixed integer rounding cuts applied:  255
Flow path cuts applied:  0
Zero-half cuts applied:  55
Gomory fractional cuts applied:  43
Disjunctive cuts applied:  0
Cone linearizations applied:  0

Root node processing (before b&c):
  Real time             =    1.73 sec. (2466.60 ticks)
Parallel b&c, 8 threads:
  Real time             =    8.27 sec. (11984.48 ticks)
  Sync time (average)   =    0.59 sec.
  Wait time (average)   =    0.00 sec.
                          ------------
Total (root+branch&cut) =   10.00 sec. (14451.08 ticks)
Gap: 7.03%
Upper bound: 28262
Lower bound: 26274.3
End of CPLEX run. Time: 10.0066 seconds
